Geometry = {
  xyzFormat = {
84
Properties=species:S:1:pos:R:3
C -4.39025 1.00232 0.160957
C -4.37665 -0.416824 0.267539
C -3.13815 -1.11138 0.363568
C -1.91323 -0.386822 0.352698
C -1.92684 1.03236 0.246578
C -3.16536 1.72694 0.150868
C -3.17914 3.16024 0.0443765
C -3.19086 4.37696 -0.0451918
C -3.20473 5.81073 -0.149242
C -0.689821 1.76414 0.236108
C 0.360254 2.38533 0.227324
C 1.59751 3.11728 0.217171
C -0.662421 -1.08836 0.448475
C 1.65054 -2.38581 0.621821
C -3.12444 -2.54455 0.471894
C -3.11282 -3.76101 0.564686
C -5.61368 -1.14859 0.278242
C -6.66377 -1.76975 0.287438
C -5.64098 1.70371 0.0630906
C -6.70266 2.29901 -0.0209378
C 1.66961 -3.80693 0.727644
C 2.90594 -4.48046 0.816616
C 4.10617 -3.76353 0.801666
C 4.09907 -2.3692 0.698793
C 2.88 -1.66513 0.608162
C 0.340785 5.25284 0.019539
H 5.05494 -4.29584 0.870932
H 5.04024 -1.82036 0.688301
C -3.0992 -5.19429 0.675503
C -4.32317 -5.92422 0.690403
C -4.29229 -7.33023 0.801027
C -3.07253 -8.00704 0.89535
C -1.86587 -7.30097 0.88114
C -1.86164 -5.89453 0.77174
C -7.89298 -3.92254 0.408387
C -9.11595 -4.6256 0.417932
C -10.3294 -3.93802 0.320399
C -10.349 -2.54422 0.212024
C -9.14382 -1.81104 0.199608
C -7.90106 -2.50163 0.298462
H -0.920965 -7.83842 0.95503
H -11.3003 -2.0184 0.136572
H -9.11222 -5.71192 0.501934
C 1.58917 4.53873 0.114472
C 2.81211 5.24188 0.106126
C 4.02578 4.55384 0.197559
C 2.84049 2.42623 0.309813
C 4.04559 3.1595 0.298575
C -7.97255 4.42129 -0.229171
C -9.2085 5.09405 -0.328568
C -10.4084 4.37651 -0.32188
C -10.4014 2.98239 -0.216236
C -9.18274 2.27909 -0.11517
C -7.95354 3.00031 -0.121621
C 0.399389 -1.68393 0.528827
C -4.44228 6.51097 -0.245528
C -4.43839 7.9181 -0.345749
C -1.98104 6.54126 -0.156232
C -2.01224 7.94796 -0.257662
C -3.23203 8.62482 -0.35111
H -5.3833 8.45557 -0.419279
H -1.07798 8.50855 -0.262982
H -11.3424 2.43309 -0.211754
H -3.06224 -9.09376 0.980485
H -5.22679 -7.89035 0.812847
H 2.92296 -5.56689 0.897371
H -9.22547 6.18035 -0.411106
H -11.2676 -4.49298 0.3289
H -11.3569 4.9082 -0.399473
H -3.24259 9.71209 -0.428912
H 2.80817 6.32861 0.0277483
H 4.96397 5.10887 0.190008
C -9.18112 0.84193 -0.00582974
C -9.16955 -0.374286 0.0879913
C 2.86647 0.988951 0.414436
C 2.87823 -0.227662 0.502935
C -6.64479 -4.63624 0.508783
C -5.58331 -5.23144 0.592793
C 0.435145 -4.55075 0.743852
C -0.614873 -5.17149 0.757331
C -6.7384 5.1658 -0.236186
C -5.68872 5.78721 -0.240681
C -0.72081 5.84832 -0.0608067
H 4.99705 2.63332 0.36929
  }
}
Hamiltonian = DFTB {
  Scc = Yes
  SCCTolerance = 1.0E-5
  MaxSCCIterations = 1000
  ConvergentSccOnly = No
  ShellResolvedSCC = Yes
  MaxAngularMomentum = {
    H = "s"
    C = "p"
  }
  Mixer = Simple {
    MixingParameter = 0.05
  }
  Solver = RelativelyRobust {}
  SlaterKosterFiles = Type2FileNames {
    Prefix = "/home/usr/bin/dftb_plus/parameters/slako/3ob/3ob-3-1/"
    Separator = "-"
    Suffix = ".skf"
    LowerCaseTypeName = No
  }
  Dispersion = LennardJones {
    Parameters = UFFParameters {}
  }
  PolynomialRepulsive = {}
  OldSKInterpolation = No
  RangeSeparated = None {}
  ReadInitialCharges = No
  InitialCharges = {}
  HCorrection = None {}
  SpinPolarisation = {}
  ElectricField = {}
  Charge = 0.0000000000000000
  OnSiteCorrection = {}
  Solvation = {}
  Electrostatics = GammaFunctional {}
  ThirdOrder = No
  ThirdOrderFull = No
  Differentiation = FiniteDiff {
    Delta = 1.2207031250000000E-004
  }
  ForceEvaluation = "Traditional"
  Filling = Fermi {
    Temperature = 0.0000000000000000
  }
}
Options = {
  WriteDetailedXML = No
  WriteAutotestTag = No
  WriteResultsTag = No
  WriteDetailedOut = Yes
  RandomSeed = 0
  WriteHS = No
  WriteRealHS = No
  MinimiseMemoryUsage = No
  WriteChargesAsText = Yes
  RestartFrequency = 20
  ShowFoldedCoords = No
  TimingVerbosity = 1
}
ParserOptions = {
  ParserVersion = 12
  WriteHSDInput = Yes
  IgnoreUnprocessedNodes = No
  StopAfterParsing = No
}
Reks = None {}
Driver = {}
Analysis = {
  ProjectStates = {}
  WriteEigenvectors = No
  WriteBandOut = Yes
  MullikenAnalysis = Yes
  WriteNetCharges = No
  AtomResolvedEnergies = No
  CalculateForces = No
}
ExcitedState = {}
