Geometry = GenFormat {
192 S
C
1 1  18.246229  -8.874810   0.035650
2 1   7.434200  14.072600   0.023180
3 1   7.433740  15.402320   0.024150
4 1   9.867950  12.667660   0.017650
5 1  11.019620  13.332210   0.016220
6 1   9.868640   9.858170   0.016120
7 1  11.020410   9.193630   0.013920
8 1  12.228070   8.496550   0.012540
9 1  12.228360   7.081080   0.012130
10 1  13.454510   6.373890   0.010670
11 1  14.680400   7.081550   0.010440
12 1  14.680110   8.497010   0.011120
13 1  13.453960   9.204200   0.011810
14 1  13.453690  10.598510   0.012030
15 1   6.210190   5.020650   0.018650
16 1  13.453480  11.928130   0.012730
17 1   6.210420   3.605180   0.016690
18 1   7.436410   2.897700   0.014110
19 1   8.662020   3.605860   0.013380
20 1   8.661850   5.021350   0.015300
21 1   7.435830   5.728740   0.018020
22 1   7.435370   7.123110   0.019520
23 1   7.435110   8.452790   0.020530
24 1   9.869350   5.718730   0.014140
25 1  11.020920   6.383610   0.013130
26 1   9.869830   2.909170   0.010320
27 1  11.021710   2.244980   0.007560
28 1   0.191460   8.494330   0.011820
29 1   0.191700   7.078820   0.010410
30 1   1.417570   6.371090   0.014360
31 1   2.643180   7.079280   0.018880
32 1   2.642910   8.494800   0.020350
33 1   1.417050   9.202540   0.017290
34 1   1.416680  10.596990   0.018470
35 1   1.416230  11.926760   0.019090
36 1   3.850330   9.192250   0.023390
37 1  18.249300 -10.291900   0.050520
38 1   5.001680   9.857420   0.024170
39 1   3.850900   6.382340   0.020550
40 1   5.002510   5.717620   0.020370
41 1  19.475599  -6.774930   0.016580
42 1  19.475710  -8.169930   0.028910
43 1   6.208830  11.970260   0.023800
44 1   6.209140  10.554790   0.023320
45 1   7.435050   9.847160   0.021130
46 1   8.660840  10.555010   0.019000
47 1   0.188150  22.393930   0.007680
48 1   0.188770  20.978630   0.011070
49 1   1.413970  20.270140   0.017710
50 1   2.639830  20.977449   0.020740
51 1   2.638950  22.392700   0.017760
52 1   1.413910  23.101320   0.011370
53 1   1.414380  24.495590   0.007150
54 1   1.414300  25.825251   0.001360
55 1   3.846230  23.089590   0.019470
56 1   4.997060  23.754910   0.019050
57 1   3.847640  20.280821   0.025070
58 1   4.999670  19.616819   0.026840
59 1   6.207600  18.920240   0.026630
60 1   6.207850  17.504669   0.026760
61 1   7.433630  16.796730   0.024900
62 1   8.659470  17.504520   0.023050
63 1   8.658730  18.920080   0.023360
64 1   7.433210  19.628540   0.025040
65 1   7.433190  21.023140   0.024180
66 1   7.432900  22.353060   0.022200
67 1   9.866480  19.616739   0.021400
68 1  11.018530  20.280460   0.019560
69 1   9.867320  16.807520   0.020410
70 1  11.018900  16.142429   0.018120
71 1  12.226480  15.444990   0.016440
72 1  12.227020  14.029570   0.015420
73 1  13.453210  13.322450   0.013800
74 1  14.679110  14.030080   0.013490
75 1  14.679100  15.445510   0.014660
76 1  13.452650  16.152081   0.015930
77 1  13.452370  17.546209   0.016660
78 1  13.452160  18.875650   0.017180
79 1   0.189430  15.444610   0.015410
80 1   0.190290  14.029120   0.015070
81 1   1.416070  13.321230   0.019470
82 1   2.641880  14.029100   0.023230
83 1   2.641480  15.444600   0.023970
84 1   1.415450  16.152031   0.020510
85 1   1.414990  17.546320   0.020750
86 1   1.413920  18.875910   0.019870
87 1   3.848860  16.142200   0.026730
88 1   5.000260  16.807390   0.027560
89 1   3.849560  13.332080   0.024990
90 1   5.001160  12.667290   0.025020
91 1  15.886400  16.143419   0.014770
92 1  17.037821  16.808809   0.015390
93 1  15.886770  13.333180   0.012410
94 1  17.038639  12.668970   0.012290
95 1  21.908091 -10.989770   0.060140
96 1  12.231110  -5.399440   0.011240
97 1  23.062250  -7.511440   0.024610
98 1  12.231730  -6.814600   0.020090
99 1  15.887500   9.194560   0.011200
100 1  17.039061   9.859460   0.011660
101 1  15.888110   6.384530   0.009530
102 1  17.039881   5.719990   0.008950
103 1  18.247641   5.023070   0.008600
104 1  18.248051   3.607580   0.006680
105 1  19.473921   2.899900   0.005830
106 1  20.699631   3.607880   0.007230
107 1  20.699289   5.023350   0.009450
108 1  19.473379   5.730950   0.010000
109 1  19.473289   7.125320   0.011510
110 1  19.473110   8.455010   0.012360
111 1  21.906710   5.720780   0.010710
112 1  23.058109   6.385860   0.011620
113 1  21.907339   2.910910   0.006110
114 1  23.058910   2.246070   0.005050
115 1  20.705200  -8.874790   0.036150
116 1  20.702259 -10.291890   0.050950
117 1  13.457060  -7.522520   0.024940
118 1  14.682140  -6.814150   0.018770
119 1  14.682290  -5.398990   0.009770
120 1  13.456570  -4.691610   0.006940
121 1  13.456310  -3.297570   0.001710
122 1  13.456070  -1.968130   0.000360
123 1  15.889960  -4.702360   0.005190
124 1  17.042000  -4.038640   0.002710
125 1  15.889410  -7.511000   0.023000
126 1  17.040039  -8.176670   0.028520
127 1   6.211510  -1.929220   0.010060
128 1   6.211800  -3.344770   0.011220
129 1   7.437650  -4.052630   0.011350
130 1   8.662900  -3.343730   0.008350
131 1  12.229340   1.548020   0.005360
132 1  12.229360   0.132590   0.003340
133 1  13.455810  -0.574000   0.001530
134 1  14.682000   0.133070   0.001670
135 1  14.681430   1.548500   0.003820
136 1  13.455250   2.255630   0.005570
137 1  13.454970   3.649950   0.007560
138 1  13.454760   4.979570   0.009290
139 1  15.888780   2.245950   0.004400
140 1  17.040470   2.910470   0.005410
141 1  15.889600  -0.564320   0.000150
142 1  17.041170  -1.229430  -0.000200
143 1  18.249020  -1.926440   0.000580
144 1  18.249760  -3.341990   0.001930
145 1  19.475290  -4.050430   0.003670
146 1  20.700890  -3.342120   0.002290
147 1  20.700609  -1.926560   0.000940
148 1  19.474850  -1.218620   0.000800
149 1  19.474739   0.175780   0.001480
150 1  19.474310   1.505500   0.003350
151 1  21.908171  -1.229230   0.000420
152 1  23.059580  -0.564070   0.000730
153 1  21.908800  -4.038720   0.003380
154 1  23.060810  -4.702760   0.006210
155 1  19.475780 -10.959090   0.056850
156 1   8.663090  -1.928180   0.007200
157 1   7.437010  -1.220820   0.008870
158 1   7.436580   0.173580   0.009730
159 1   7.436550   1.503300   0.011710
160 1   9.870650  -1.230690   0.005000
161 1  11.022010  -0.565230   0.003700
162 1   9.870900  -4.039970   0.007480
163 1  11.023180  -4.703280   0.008330
164 1   0.192690   1.544090   0.001950
165 1   0.192300   0.128610  -0.000070
166 1   1.418590  -0.578350   0.003800
167 1   2.644370   0.129500   0.008290
168 1   2.644260   1.544990   0.010610
169 1   1.418200   2.252410   0.008090
170 1   1.417830   3.646870   0.010690
171 1   1.417740   4.976640   0.012680
172 1   3.851630   2.242520   0.014410
173 1   5.002980   2.907750   0.016380
174 1   3.852020  -0.567640   0.009850
175 1   5.003670  -1.232390   0.010280
176 1  18.246441  11.972250   0.012780
177 1  18.246599  10.556760   0.012440
178 1  19.472639   9.849380   0.012830
179 1  20.698290  10.557480   0.013450
180 1  20.698030  11.972950   0.013940
181 1  19.472031  12.680420   0.013670
182 1  19.471889  14.074820   0.014240
183 1  19.471970  15.404540   0.014950
184 1  21.905439  12.670450   0.014500
185 1  23.056829  13.335620   0.014840
186 1  21.906010   9.860570   0.013430
187 1  23.057590   9.195770   0.013430
188 1  21.911421  -8.176750   0.029560
189 1   7.434560  12.678200   0.022330
190 1  23.058710 -11.656320   0.069660
191 1  19.475330  -5.445030   0.008330
192 1   8.660410  11.970490   0.019680
0.0 0.0 0.0
24.07470 13.9066 0.0
0.0 27.8049 0.0
0.0 0.0 50.0
}
Driver = GeometryOptimization {
  Optimiser = Rational {
    DiagLimit = 1.0000000000000000E-002
  }
  LatticeOpt = Yes
  MovedAtoms = 1:-1
  FixAngles = No
  Isotropic = No
  MaxSteps = 10000
  OutputPrefix = "geo_opt_out"
  Convergence = {
    Energy = inf
    GradElem = 1e-4
    GradNorm = inf
    DispElem = inf
    DispNorm = inf
  }
  AppendGeometries = Yes
  FixLengths = {
 No No No
  }
}
Hamiltonian = DFTB {
  Scc = Yes
  SCCTolerance = 1e-5
  MaxSCCIterations = 10000
  ConvergentSccOnly = Yes
  EwaldTolerance = 1e-9
  ShellResolvedSCC = No
  Mixer = Anderson {
    MixingParameter = 5.0000000000000003E-002
    Generations = 4
    InitMixingParameter = 1.0000000000000000E-002
    DynMixingParameters = {}
    DiagonalRescaling = 1.0000000000000000E-002
  }
  MaxAngularMomentum = {
    C = "p"
  }
  SlaterKosterFiles = Type2FileNames {
    Prefix = "/home/common/3ob-3-1_H_mod/"
    Separator = "-"
    Suffix = ".skf"
    LowerCaseTypeName = No
  }
  KPointsAndWeights = SupercellFolding {
1 0 0
0 1 0
0 0 1
0.0 0.0 0.0
  }
  Dispersion = DftD3 {
    Damping = BeckeJohnson {
      a1 = 0.746
      a2 = 4.191
    }
    s6 = 1.0
    s8 = 3.209
    cutoff = 94.868329805051374
    cutoffcn = 40.000000000000000
    threebody = No
    hhrepulsion = No
  }
  ThirdOrderFull = Yes
  HCorrection = Damping {
    Exponent = 4.00
  }
  HubbardDerivs = C {
-0.1492
  }
  PolynomialRepulsive = {}
  OldSKInterpolation = No
  RangeSeparated = None {}
  ReadInitialCharges = No
  InitialCharges = {}
  EwaldParameter = 0.0000000000000000
  SpinPolarisation = {}
  ElectricField = {}
  Solver = RelativelyRobust {}
  Charge = 0.0000000000000000
  OnSiteCorrection = {}
  Solvation = {}
  Electrostatics = GammaFunctional {}
  ThirdOrder = No
  Differentiation = FiniteDiff {
    Delta = 1.2207031250000000E-004
  }
  ForceEvaluation = "Traditional"
  Filling = Fermi {
    Temperature = 0.0000000000000000
    IndependentKFilling = No
  }
}
Options = {
  WriteDetailedXML = No
  WriteAutotestTag = No
  WriteResultsTag = No
  WriteDetailedOut = Yes
  RandomSeed = 0
  WriteHS = No
  WriteRealHS = No
  MinimiseMemoryUsage = No
  ShowFoldedCoords = No
  TimingVerbosity = 1
  WriteChargesAsText = No
}
Analysis = {
  CalculateForces = Yes
  ProjectStates = {}
  WriteEigenvectors = No
  WriteBandOut = Yes
  MullikenAnalysis = Yes
  WriteNetCharges = No
  AtomResolvedEnergies = No
}
ParserOptions = {
  ParserVersion = 12
  WriteHSDInput = Yes
  IgnoreUnprocessedNodes = No
  StopAfterParsing = No
}
Reks = None {}
ExcitedState = {}
