Geometry = xyzFormat {
540
opt dftb+ matsci tempelect=300K scc 10-5
C     25.65896293     36.26720970      0.13197981      4.06954360
C     25.68169971     31.97582968      0.06190497      4.06718898
C     26.88720671     34.15836332      0.09925086      3.98592151
C     28.11306487     36.29656410      0.13589435      3.99557651
C     29.34121218     38.43345301      0.17253156      3.98592121
C     25.69629117     27.69043227     -0.00823799      4.06714994
C     26.90329142     29.87044643      0.02913591      3.98505079
C     28.12688267     32.01157195      0.06586988      3.99782589
C     29.36296360     34.15152223      0.10258311      4.00172367
C     30.59591498     36.29943046      0.13941326      4.00172365
C     31.82041809     38.44602577      0.17622190      3.99782586
C     33.05223997     40.58242955      0.21290576      3.98505076
C     25.70586850     23.40472557     -0.07865915      4.06712944
C     26.91484272     25.58435228     -0.04118836      3.98490298
C     28.14121939     27.72421713     -0.00437746      3.99764917
C     29.37750866     29.86701514      0.03246430      4.00168242
C     30.60722517     32.01704121      0.06937820      4.00018776
C     31.83517520     34.16049342      0.10615195      4.00027399
C     33.06680292     36.30183495      0.14288416      4.00018784
C     34.30321939     38.44801671      0.17970912      4.00168247
C     35.53008156     40.59622725      0.21656323      3.99764914
C     36.75941306     42.73440081      0.25325775      3.98490281
C     25.70945752     19.11138602     -0.14951772      4.06654967
C     26.92148049     21.29597083     -0.11185699      3.98449017
C     28.15064694     23.43734782     -0.07491308      3.99764230
C     29.38924749     25.58016639     -0.03795881      4.00162223
C     30.61948808     27.73168420     -0.00091159      4.00002482
C     31.84760972     29.87609321      0.03597040      4.00023532
C     33.08031616     32.01903955      0.07278722      4.00029965
C     34.31252746     34.16565515      0.10962605      4.00029967
C     35.54132151     36.31084791      0.14641668      4.00023537
C     36.77369361     38.45282010      0.18315245      4.00002489
C     38.01113808     40.60020776      0.21997460      4.00162224
C     39.23685602     42.75042568      0.25680154      3.99764222
C     40.46608911     44.89177317      0.29345547      3.98449001
C     26.92765898     17.00656435     -0.18282989      3.96593040
C     28.15729379     19.15327049     -0.14570854      3.99867476
C     29.39723172     21.29442878     -0.10868408      4.00141734
C     30.62982406     23.44574346     -0.07152760      3.99987358
C     31.85890808     25.59074423     -0.03451437      4.00013802
C     33.09229705     27.73470716      0.00243980      4.00024705
C     34.32379073     29.88212355      0.03938924      4.00020329
C     35.55312364     32.02680992      0.07623302      4.00023712
C     36.78512209     34.16996728      0.11301118      4.00020332
C     38.01838999     36.31636795      0.14981467      4.00024708
C     39.24772190     38.46266379      0.18658826      4.00013804
C     40.48012329     40.60576701      0.22328715      3.99987360
C     41.71620941     42.75508474      0.26005780      4.00141734
C     42.93982236     44.90562035      0.29679795      3.99867464
C     28.15238226     14.90552989     -0.21614230      4.06654962
C     29.40186837     17.01055076     -0.17965743      3.99867479
C     30.63892622     19.16156917     -0.14242545      3.99961561
C     31.86843257     21.30672066     -0.10531310      4.00008732
C     33.10276047     23.44997219     -0.06825212      4.00016453
C     34.33480940     25.59764881     -0.03116527      4.00011822
C     35.56450078     27.74272309      0.00581344      4.00019301
C     36.79671061     29.88653518      0.04270467      4.00018596
C     38.02867595     32.03272017      0.07956964      4.00018597
C     39.25846982     34.17792091      0.11636359      4.00019304
C     40.49062574     36.32158497      0.15309601      4.00011826
C     41.72384217     38.46859793      0.18984890      4.00016454
C     42.95208923     40.61534703      0.22655297      4.00008732
C     44.18441117     42.75889147      0.26317284      3.99961560
C     45.41799181     44.91191384      0.29992447      3.99867464
C     30.65077001     14.87545202     -0.21357930      3.98449010
C     31.87636374     17.02624000     -0.17633113      4.00141737
C     33.11171987     19.16622096     -0.13925049      4.00008727
C     34.34520601     21.31368410     -0.10206237      4.00006198
C     35.57521857     23.45876354     -0.06495328      4.00014174
C     36.80773580     25.60256916     -0.02791915      4.00015571
C     38.03957669     27.74900163      0.00908241      4.00015025
C     39.26961233     29.89396756      0.04597822      4.00017484
C     40.50149951     32.03787245      0.08278804      4.00015027
C     41.73374383     34.18407711      0.11957712      4.00015575
C     42.96338026     36.32954176      0.15630183      4.00014177
C     44.19538251     38.47348705      0.19296012      4.00006202
C     45.42769274     40.62163432      0.22964524      4.00008732
C     46.65260047     42.76762136      0.26625333      4.00141734
C     47.89176406     44.91063117      0.30281188      3.98449001
C     31.88019709     12.77472467     -0.24706790      4.06712943
C     33.12011754     14.88168260     -0.21050102      3.99764229
C     34.35604166     17.03052025     -0.17323028      3.99987356
C     35.58525212     19.17600490     -0.13603137      4.00016451
C     36.81818714     21.31881487     -0.09889731      4.00014173
C     38.05049431     23.46522733     -0.06175243      4.00011613
C     39.28056778     25.61023368     -0.02470665      4.00015520
C     40.51254251     27.75419265      0.01223827      4.00015115
C     41.74440449     29.90019682      0.04913087      4.00015116
C     42.97444523     32.04526867      0.08592939      4.00015523
C     44.20635095     34.18922898      0.12264790      4.00011618
C     45.43834635     36.33582791      0.15935513      4.00014177
C     46.66691586     38.48115226      0.19598911      4.00016454
C     47.89967582     40.62461038      0.23255600      3.99987360
C     49.13194591     42.77555540      0.26921507      3.99764222
C     34.37276455     12.74446559     -0.24465218      3.98490296
C     35.59539261     14.89539351     -0.20731868      4.00162224
C     36.82849530     17.03488532     -0.17016975      4.00013797
C     38.06149847     19.18161919     -0.13291834      4.00011819
C     39.29130213     21.32675480     -0.09573799      4.00015570
C     40.52344064     23.47045044     -0.05864465      4.00015519
C     41.75531905     25.61650549     -0.02159934      4.00014123
C     42.98549663     27.76147771      0.01533081      4.00014840
C     44.21731815     29.90550804      0.05215665      4.00014125
C     45.44921859     32.05155504      0.08893706      4.00015523
C     46.67895244     34.19663817      0.12563369      4.00015575
C     47.91110976     36.34043229      0.16225660      4.00011826
C     49.14303473     38.48779561      0.19889067      4.00013804
C     50.36865798     40.63159171      0.23542211      4.00162224
C     51.60943957     42.77211374      0.27189167      3.98490282
C     35.59841027     10.64251554     -0.27835184      4.06714995
C     36.83941431     12.74902646     -0.24169443      3.99764921
C     38.07408047     14.89753458     -0.20434303      4.00002483
C     39.30217940     17.04350535     -0.16706100      4.00024701
C     40.53431474     19.18647791     -0.12986050      4.00019298
C     41.76636282     21.33280766     -0.09266311      4.00015022
C     42.99641824     23.47784631     -0.05557326      4.00015114
C     44.22828555     25.62183955     -0.01859760      4.00014838
C     45.46010215     27.76776413      0.01830897      4.00014840
C     46.69022696     29.91276066      0.05510692      4.00015116
C     47.92217021     32.05672227      0.09181321      4.00015027
C     49.15422610     34.20305642      0.12849633      4.00019304
C     50.38334058     36.34777333      0.16509853      4.00024708
C     51.61708192     38.49051825      0.20163230      4.00002489
C     52.84970343     40.64021241      0.23824853      3.99764915
C     38.09033466     10.61035401     -0.27601879      3.98505088
C     39.31352421     12.76074370     -0.23860099      4.00168245
C     40.54554130     14.90136064     -0.20135585      4.00023531
C     41.77792291     17.04877000     -0.16403032      4.00020327
C     43.00728149     19.19415117     -0.12679769      4.00018591
C     44.23925344     21.33802164     -0.08966578      4.00017478
C     45.47111525     23.48413289     -0.05259556      4.00015114
C     46.70124726     25.62907005     -0.01565354      4.00014123
C     47.93306164     27.77304349      0.02117293      4.00015115
C     49.16501916     29.91910469      0.05794635      4.00017484
C     50.39498841     32.06413244      0.09462997      4.00018597
C     51.62758297     34.20766701      0.13123661      4.00020332
C     52.86040589     36.35483544      0.16785973      4.00023537
C     54.08754949     38.49826269      0.20438311      4.00168247
C     55.32758450     40.63899910      0.24085921      3.98505076
C     39.31386728      8.50611202     -0.30986465      4.06718895
C     40.55669732     10.61187309     -0.27313249      3.99782595
C     41.79065437     12.76317204     -0.23565880      4.00018783
C     43.01800244     14.90989541     -0.19830323      4.00029966
C     44.25022326     17.05351340     -0.16104702      4.00023708
C     45.48218741     19.20043821     -0.12380974      4.00018591
C     46.71213873     21.34537157     -0.08670305      4.00015021
C     47.94409875     23.48930171     -0.04971950      4.00015519
C     49.17599875     25.63537195     -0.01280949      4.00015519
C     50.40602233     27.78041674      0.02398367      4.00015025
C     51.63792741     29.92423562      0.06067839      4.00018596
C     52.87053950     32.07079821      0.09735777      4.00023712
C     54.10016837     34.21591494      0.13396453      4.00029967
C     55.33493941     36.35839147      0.17050031      4.00018784
C     56.57032979     38.50888180      0.20714809      3.99782586
C     41.80723982      8.47140797     -0.30757085      3.98592139
C     43.02822881     10.62482466     -0.27003889      4.00172372
C     44.26119764     12.76732744     -0.23270661      4.00027400
C     45.49340496     14.91618384     -0.19531840      4.00029965
C     46.72251586     17.06133090     -0.15806554      4.00020327
C     47.95516156     19.20532935     -0.12091669      4.00019298
C     49.18719854     21.35189404     -0.08383126      4.00015570
C     50.41704010     23.49664328     -0.04689108      4.00011613
C     51.64883838     25.64027130     -0.01007425      4.00015570
C     52.88109892     27.78671294      0.02669898      4.00019301
C     54.11083852     29.93238723      0.06338727      4.00020329
C     55.34335555     32.07558969      0.09998806      4.00029965
C     56.57751587     34.22333723      0.13663109      4.00027399
C     57.80580859     36.36853740      0.17320305      4.00172365
C     59.04956907     38.50890091      0.20969995      3.98592122
C     43.03048652      6.35967684     -0.34159631      4.06954387
C     44.27218441      8.47634997     -0.30463150      3.99557670
C     45.50512174     10.63111685     -0.26706178      4.00172371
C     46.73173001     12.77572426     -0.22971826      4.00018782
C     47.96587775     14.92021102     -0.19243201      4.00023531
C     49.19825441     17.06864505     -0.15516226      4.00024702
C     50.42797091     19.21303487     -0.11806033      4.00011819
C     51.66032251     21.35652009     -0.08108023      4.00014173
C     52.89231744     23.50275622     -0.04416637      4.00014174
C     54.12175860     25.64791533     -0.00737388      4.00011822
C     55.35331234     27.79125729      0.02931088      4.00024705
C     56.58701912     29.93893644      0.06601307      4.00023532
C     57.81642563     32.08615430      0.10266645      4.00018777
C     59.04974227     34.22692398      0.13919337      4.00172368
C     60.28864229     36.37828209      0.17588507      3.99557651
C     45.52470566      6.36601317     -0.33860038      4.06954387
C     46.73712229      8.48393183     -0.30165290      3.98592139
C     47.97668742     10.63072314     -0.26423836      3.99782595
C     49.20884062     12.78588234     -0.22675417      4.00168245
C     50.43732639     14.92894295     -0.18954634      4.00002484
C     51.67195095     17.07259466     -0.15240639      4.00013797
C     52.90421431     19.22000331     -0.11530500      4.00016450
C     54.13329844     21.36395516     -0.07837302      4.00006198
C     55.36478924     23.50652776     -0.04156754      4.00016453
C     56.59766394     25.65359061     -0.00477629      4.00013801
C     57.82610564     27.80079759      0.03194676      4.00002483
C     59.05713565     29.94240715      0.06853709      4.00168243
C     60.29676493     32.09328510      0.10526569      3.99782589
C     61.52543312     34.24634075      0.14200387      3.98592152
C     62.74286383     36.36139334      0.17808744      4.06954360
C     49.23028467      8.53130453     -0.29800550      4.06718896
C     50.44302600     10.64173646     -0.26129036      3.98505087
C     51.68297866     12.78673763     -0.22403044      3.99764920
C     52.91599342     14.93939795     -0.18671548      4.00162224
C     54.14439528     17.08079408     -0.14967404      3.99987355
C     55.37776516     19.22278909     -0.11271402      4.00008727
C     56.61007614     21.36957753     -0.07577763      4.00008732
C     57.83771605     23.51486473     -0.03896590      3.99987358
C     59.06734760     25.65556118     -0.00230443      4.00162224
C     60.30438145     27.80592175      0.03447447      3.99764917
C     61.53130425     29.95840829      0.07124813      3.98505079
C     62.74210031     32.06996491      0.10730955      4.06718898
C     52.93475358     10.68656183     -0.25784457      4.06714994
C     54.14962009     12.79471283     -0.22128285      3.98490295
C     55.39130696     14.93826711     -0.18416724      3.99764228
C     56.62406351     17.08911575     -0.14701688      4.00141736
C     57.85055122     19.23070388     -0.11011821      3.99961561
C     59.08130872     21.36984367     -0.07334500      4.00141734
C     60.31690493     23.51906683     -0.03647870      3.99764230
C     61.54169984     25.67231955      0.00038415      3.98490298
C     62.74945176     27.78455958      0.03650777      4.06714994
C     56.64200065     12.83764056     -0.21799884      4.06712941
C     57.86065492     14.94458694     -0.18156978      3.98449009
C     59.09860774     17.08600276     -0.14462315      3.99867478
C     60.33219481     19.23501702     -0.10762895      3.99867475
C     61.55702092     21.38396682     -0.07071638      3.98449016
C     62.76181955     23.49886825     -0.03445793      4.06712944
C     60.35885688     14.98736241     -0.17838692      4.06654960
C     61.57280616     17.09459088     -0.14207764      3.96593038
C     62.78021458     19.20557295     -0.10575999      4.06654965
C     25.66904923     34.89525067      0.10958745      4.06654966
C     26.87645778     37.00623526      0.14575407      3.96593038
C     25.68744288     30.60193666      0.03943621      4.06712944
C     26.89224157     32.71683792      0.07569733      3.98449017
C     28.11706766     34.86578906      0.11252410      3.99867476
C     29.35065487     37.01480571      0.14936323      3.99867478
C     30.58860775     39.15622488      0.18610538      3.98449009
C     25.69980940     26.31623353     -0.03079404      4.06714995
C     26.90756126     28.42847035      0.00550947      3.98490298
C     28.13235626     30.58172126      0.04247206      3.99764231
C     29.36795242     32.73094402      0.07935514      4.00141734
C     30.59870996     34.87008493      0.11604816      3.99961562
C     31.82519776     37.01167589      0.15277158      4.00141737
C     33.05795434     39.16252864      0.18967539      3.99764229
C     34.29964127     41.30608783      0.22649607      3.98490296
C     25.70715999     22.03082419     -0.10131047      4.06718898
C     26.91795607     24.14237491     -0.06491364      3.98505080
C     28.14487881     26.29485647     -0.02785853      3.99764917
C     29.38191250     28.44521317      0.00914058      4.00162224
C     30.61154400     30.58590724      0.04593518      3.99987358
C     31.83918385     32.73119399      0.08276257      4.00008732
C     33.07149488     34.87798406      0.11959347      4.00008728
C     34.30486480     37.01998251      0.15633935      3.99987356
C     35.53326665     39.16138369      0.19307278      4.00162224
C     36.76628157     41.31405025      0.23000103      3.99764921
C     38.00623431     43.45905919      0.26679337      3.98505087
C     25.70639578     17.73939868     -0.17223382      4.06954359
C     26.92382651     19.85444306     -0.13567734      3.98592151
C     28.15249462     22.00749118     -0.09850812      3.99782589
C     29.39212373     24.15836229     -0.06138876      4.00168242
C     30.62315354     26.29996607     -0.02446360      4.00002483
C     31.85159509     28.44716881      0.01250500      4.00013802
C     33.08446972     30.59422935      0.04942515      4.00016453
C     34.31596044     32.73680203      0.08622130      4.00006198
C     35.54504467     34.88075629      0.12300269      4.00016451
C     36.77730810     37.02816943      0.15982731      4.00013797
C     38.01193271     39.17182738      0.19658109      4.00002483
C     39.24041865     41.31489611      0.23329675      4.00168245
C     40.47257200     43.47006521      0.27018494      3.99782594
C     41.71213733     45.61686798      0.30691062      3.98592139
C     26.95903277     15.58280206     -0.20639538      4.06954368
C     28.16061668     17.72249918     -0.16940723      3.99557650
C     29.39951659     19.87384834     -0.13219355      4.00172367
C     30.63283312     22.01460961     -0.09517934      4.00018776
C     31.86223936     24.16182004     -0.05809251      4.00023532
C     33.09594589     26.30949313     -0.02103531      4.00024705
C     34.32749950     28.45283090      0.01589106      4.00011822
C     35.55694054     30.59798830      0.05278092      4.00014174
C     36.78893542     32.74422533      0.08963525      4.00014173
C     38.02128712     34.88771394      0.12640310      4.00011819
C     39.25100373     37.03210952      0.16315276      4.00024701
C     40.48338056     39.18055148      0.19994479      4.00023531
C     41.71752859     41.32504811      0.23664036      4.00018782
C     42.94413713     43.46966714      0.27329196      4.00172371
C     44.17707474     45.62444707      0.31009181      3.99557669
C     29.39968948     15.59188000     -0.20320616      3.98592121
C     30.64344975     17.73223374     -0.16613280      4.00172365
C     31.87174228     19.87742434     -0.12899943      4.00027399
C     33.10590246     22.02516306     -0.09183499      4.00029965
C     34.33841922     24.16835785     -0.05478197      4.00020329
C     35.56815858     26.31402618     -0.01774649      4.00019301
C     36.80041893     28.46046426      0.01923426      4.00015571
C     38.03221707     30.60409150      0.05609557      4.00011613
C     39.26205873     32.74884271      0.09291001      4.00015570
C     40.49409582     34.89541215      0.12970720      4.00019298
C     41.72674169     37.03941783      0.16642210      4.00020327
C     42.95585288     39.18457428      0.20311223      4.00029966
C     44.18806057     41.33344196      0.23982743      4.00027400
C     45.42102970     43.47595750      0.27640602      4.00172371
C     46.64201909     45.62938772      0.31313709      3.98592138
C     30.68734099     13.45671914     -0.23713608      4.06718889
C     31.87892830     15.59189098     -0.20017478      3.99782585
C     33.11431847     17.74237073     -0.16290584      4.00018784
C     34.34908919     19.88483724     -0.12577676      4.00029968
C     35.57871788     22.02994486     -0.08863361      4.00023712
C     36.81132967     24.17649992     -0.05150987      4.00018596
C     38.04323450     26.32031350     -0.01450167      4.00015025
C     39.27325790     28.46535574      0.02244314      4.00015520
C     40.50515788     30.61142634      0.05932785      4.00015519
C     41.73711810     32.75535985      0.09610804      4.00015022
C     42.96706958     34.90029933      0.13284550      4.00018591
C     44.19903394     37.04723266      0.16956896      4.00023709
C     45.43125509     39.19086121      0.20619253      4.00029966
C     46.65860353     41.33759688      0.24282229      4.00018783
C     47.89256096     43.48890911      0.27950788      3.99782594
C     33.12167357     13.46177808     -0.23415490      3.98505075
C     34.36170825     15.60250305     -0.19700545      4.00168247
C     35.58885155     17.74591921     -0.15982345      4.00023537
C     36.82167416     19.89307730     -0.12258981      4.00020333
C     38.05426845     22.03660298     -0.08545397      4.00018597
C     39.28423741     24.18162387     -0.04835897      4.00017484
C     40.51619479     26.32768073     -0.01132756      4.00015115
C     41.74800908     28.47165276      0.02557899      4.00014123
C     42.97814110     30.61659165      0.06241448      4.00015114
C     44.21000317     32.76270766      0.09919807      4.00017478
C     45.44197532     34.90658558      0.13588349      4.00018591
C     46.67133417     37.05197641      0.17253797      4.00020327
C     47.90371610     39.19939728      0.20918290      4.00023531
C     49.13573367     41.34002683      0.24567858      4.00168245
C     50.35892364     43.49042988      0.28230405      3.98505086
C     34.40640005     11.32658906     -0.26829870      4.06714993
C     35.59955453     13.46055990     -0.23125873      3.99764914
C     36.83217562     15.61024188     -0.19392191      4.00002489
C     38.06591661     17.75297540     -0.15671239      4.00024708
C     39.29503079     19.89768213     -0.11950590      4.00019304
C     40.52708635     22.04400792     -0.08232409      4.00015027
C     41.75902935     24.18796351     -0.04526132      4.00015116
C     42.98915408     26.33295694     -0.00827847      4.00014840
C     44.22097068     28.47888157      0.02862514      4.00014838
C     45.45283809     30.62287802      0.06540927      4.00015114
C     46.68289378     32.76792282      0.10213502      4.00015022
C     47.91494218     34.91426109      0.13882314      4.00019298
C     49.14707780     37.05724407      0.17540477      4.00024702
C     50.37517708     39.20322655      0.21198914      4.00002483
C     51.60984368     41.35174729      0.24859064      3.99764920
C     36.83981857     11.32866745     -0.26544277      3.98490281
C     38.08059980     13.46917650     -0.22820188      4.00162224
C     39.30622258     15.61296025     -0.19093419      4.00013804
C     40.53814727     17.76031228     -0.15362987      4.00011826
C     41.77030432     19.90409682     -0.11643409      4.00015575
C     43.00003791     22.04917249     -0.07929391      4.00015523
C     44.23193811     24.19521475     -0.04223014      4.00014125
C     45.46375961     26.33924340     -0.00530325      4.00014840
C     46.69393725     28.48421714      0.03153848      4.00014123
C     47.92581580     30.63027673      0.06831447      4.00015520
C     49.15795464     32.77397952      0.10498210      4.00015570
C     50.38775863     34.91912435      0.14161463      4.00011819
C     51.62076211     37.06586894      0.17823150      4.00013797
C     52.85386516     39.20537233      0.21469470      4.00162224
C     54.07649362     41.35631240      0.25131195      3.98490295
C     38.12322699      9.19196502     -0.29974429      4.06712934
C     39.31731218     11.32522324     -0.26262356      3.99764221
C     40.54958187     13.47615509     -0.22518232      3.99987360
C     41.78234142     15.61960097     -0.18789331      4.00016454
C     43.01091060     17.76491471     -0.15062500      4.00014177
C     44.24290579     19.91150503     -0.11340077      4.00011618
C     45.47481133     22.05545920     -0.07631224      4.00015523
C     46.70485189     24.20052776     -0.03931351      4.00015116
C     47.93671392     26.34653174     -0.00240411      4.00015115
C     49.16868882     28.49049349      0.03437543      4.00015520
C     50.39876251     30.63550538      0.07109071      4.00011613
C     51.63106999     32.78192567      0.10776924      4.00014173
C     52.86400523     34.92474517      0.14434116      4.00016450
C     54.09321603     37.07024033      0.18091683      3.99987356
C     55.32914041     39.21908914      0.21753070      3.99764228
C     40.55749453      9.19015977     -0.29696123      3.98449000
C     41.79665770     11.33315610     -0.25960279      4.00141734
C     43.02156510     13.47913027     -0.22223425      4.00008732
C     44.25387494     15.62726610     -0.18486710      4.00006202
C     45.48587691     17.77120188     -0.14763628      4.00014177
C     46.71551319     19.91665920     -0.11046917      4.00015575
C     47.94775738     22.06285908     -0.07339116      4.00015027
C     49.17964442     24.20676207     -0.03646337      4.00017484
C     50.40968021     26.35172898      0.00037482      4.00015025
C     51.64152131     28.49816532      0.03714922      4.00015571
C     52.87403880     30.64197729      0.07381067      4.00014174
C     54.10405166     32.78706492      0.11043865      4.00006198
C     55.33753799     34.93453744      0.14707190      4.00008728
C     56.57289438     37.07452853      0.18355856      4.00141736
C     57.79848834     39.22532675      0.22019995      3.98449009
C     41.84367794      7.04834021     -0.33141077      4.06654960
C     43.03126701      9.18887760     -0.29411552      3.99867464
C     44.26484732     11.34188674     -0.25658291      3.99961560
C     45.49716897     13.48541925     -0.21925290      4.00008732
C     46.72541569     15.63215808     -0.18193514      4.00016455
C     47.95863191     17.77916281     -0.14468771      4.00011826
C     49.19078770     19.92282092     -0.10759551      4.00019304
C     50.42058146     22.06801829     -0.07059103      4.00018597
C     51.65254684     24.21420256     -0.03367948      4.00018596
C     52.88475684     26.35801673      0.00309279      4.00019301
C     54.11444840     28.50309567      0.03980308      4.00011822
C     55.34649761     30.65077892      0.07650067      4.00016453
C     56.58082579     32.79403848      0.11308748      4.00008732
C     57.81033223     34.93919897      0.14967380      3.99961562
C     59.04739026     37.09022687      0.18634773      3.99867478
C     44.27583468      7.05074733     -0.32855319      3.96592991
C     45.50943685      9.19517307     -0.29113849      3.99867464
C     46.73304950     11.34569650     -0.25367315      4.00141734
C     47.96913539     13.49500368     -0.21627209      3.99987360
C     49.20153655     15.63809822     -0.17905113      4.00013804
C     50.43086834     17.78438736     -0.14186825      4.00024708
C     51.66413616     19.93078348     -0.10478274      4.00020333
C     52.89613456     22.07393860     -0.06786381      4.00023712
C     54.12546759     24.21862523     -0.03102952      4.00020329
C     55.35696138     26.36604443      0.00576090      4.00024705
C     56.59035052     28.51001228      0.04242874      4.00013802
C     57.81943481     30.65501952      0.07906501      3.99987358
C     59.05202734     32.80634183      0.11578134      4.00141734
C     60.29196539     34.94750852      0.15231868      3.99867475
C     61.52160026     37.09422356      0.18892272      3.96593038
C     46.70797216      7.06069744     -0.32557060      4.06654960
C     47.98317059      9.20902429     -0.28806235      3.98449001
C     49.21240357     11.35036150     -0.25078950      3.99764222
C     50.43812139     13.50057071     -0.21343593      4.00162224
C     51.67556571     15.64795155     -0.17619161      4.00002489
C     52.90793782     17.78991846     -0.13913172      4.00023537
C     54.13673181     19.93510772     -0.10212379      4.00029967
C     55.36894307     22.08172193     -0.06519622      4.00029965
C     56.60164959     24.22466923     -0.02842771      4.00023532
C     57.82977133     26.36908125      0.00828289      4.00002483
C     59.06001211     28.52060373      0.04506067      4.00162224
C     60.29861280     30.66342835      0.08167043      3.99764230
C     61.52777936     32.80481208      0.11823101      3.98449016
C     62.73980232     34.98940424      0.15547672      4.06654966
C     50.41739735      9.22319865     -0.28507808      4.06712934
C     51.68984759     11.36639543     -0.24779600      3.98490281
C     52.91917890     13.50456257     -0.21070277      3.99764914
C     54.14604102     15.65276758     -0.17351176      4.00168248
C     55.38245751     17.79894518     -0.13643050      4.00018785
C     56.61408518     19.94028408     -0.09953317      4.00027399
C     57.84203518     22.08373552     -0.06270125      4.00018777
C     59.07175178     24.23376268     -0.02584325      4.00168243
C     60.30804109     26.37656354      0.01083867      3.99764917
C     61.53441791     28.51643244      0.04742415      3.98490297
C     62.74339207     30.69606400      0.08462801      4.06712944
C     54.12324544     11.37668439     -0.24503602      4.06714993
C     55.39702179     13.51837432     -0.20789011      3.98505075
C     56.62884362     15.65477377     -0.17094660      3.99782586
C     57.85334667     17.80136555     -0.13392186      4.00172365
C     59.08629793     19.94927168     -0.09695346      4.00172368
C     60.32237891     22.08922133     -0.06019591      3.99782589
C     61.54597017     24.23034761     -0.02349895      3.98505079
C     62.75297018     26.41036369      0.01377660      4.06714994
C     57.83134919     13.52568824     -0.20529893      4.06718889