#---a parte geometrica da imput---
#---archivo.gen ---
Geometry = GenFormat {
		<<< "g-supercell-1xW.gen"
	}

#----estructura-|.gen----

#Geometry ={
#	TypeNames = { "Ga" "As" }
#	TypesAndCoordinates [Angstrom] = {
#		1 0.000000 0.000000 0.000000
#		2 1.356773 1.356773 1.356773
#		}
#	Periodic = Yes
#	LatticeVectors [Angstrom] = {
#		2.713546 2.713546 0.
#		0. 2.713546 2.713546
#		2.713546 0. 2.713546
#		}
#}

#---|||---

Driver = GeometryOptimization {
        Optimiser = Rational {}
#	Optimiser = Rational { DiagLimit = 1.0e-2 }
       LatticeOpt = Yes
       MovedAtoms =  1:-1
       FixAngles = No
       Isotropic = No
        MaxSteps = 10000
        OutputPrefix = "geo_opt_out"
        Convergence = {
                Energy = inf
                GradElem = 1e-4         
                GradNorm = inf
                DispElem = inf
                DispNorm = inf
        } 
	AppendGeometries = Yes
}

#---|||---

Hamiltonian = DFTB {
        Scc = Yes
        SCCTolerance = 1e-5 
	MaxSCCIterations = 10000
	ConvergentSccOnly = Yes
	EwaldTolerance =1e-9	#periodic
        ShellResolvedSCC = No	#revisar
        Mixer = Anderson {}
        MaxAngularMomentum = {
                C = "p"
#                H = "s"
	}
	#---|||---
	#Charge = 0.0
	#Solver = RelativelyRobust{}
	#Filling =Fermi{
	#	Temperature [K] = 300
	#}
	SlaterKosterFiles = Type2FileNames {
	        Prefix ="/home/common/3ob-3-1_H_mod/"
                Separator = "-"
                Suffix = ".skf"
                LowerCaseTypeName = No
        }

	#---|||---
	KPointsAndWeights = SupercellFolding{
		1	0	0
		0	1	0
		0	0	1
		0.0	0.0	0.0
		} 

	#---|||----
	  Dispersion = DftD3 {
                Damping = BeckeJohnson {
                        a1 = 0.746 
                        a2 = 4.191
                }
                s6 = 1.0
                s8 = 3.209
        }
	 ThirdOrderFull = Yes
	 HCorrection = Damping { 
                Exponent = 4.00 
        }
	 HubbardDerivs {
                H = -0.1857
 #               C = -0.1492
        }


	#--|||---


	
}
#---|||---
Options = {
        WriteDetailedXML = No
        WriteAutotestTag = No
        WriteResultsTag = No
        WriteDetailedOut = Yes
        RandomSeed = 0
        WriteHS = No
        WriteRealHS = No
        MinimiseMemoryUsage = No
}

Analysis = {
        CalculateForces = Yes
}

ParserOptions = {
        ParserVersion = 12
        WriteHSDInput = Yes
        IgnoreUnprocessedNodes = No
        StopAfterParsing = No
}


