Geometry = GenFormat {
108 S
C
1 1   7.339760  13.829620   0.023420
2 1   7.339300  15.159340   0.024390
3 1   9.773500  12.424680   0.017900
4 1  10.925180  13.089230   0.016470
5 1   9.774200   9.615190   0.016360
6 1  10.925970   8.950650   0.014170
7 1  12.133630   8.253570   0.012780
8 1  12.133910   6.838100   0.012380
9 1  13.360070   6.130910   0.010920
10 1  14.585960   6.838570   0.010680
11 1  14.585670   8.254030   0.011370
12 1  13.359520   8.961220   0.012060
13 1  13.359250  10.355530   0.012270
14 1   6.115750   4.777670   0.018900
15 1  13.359040  11.685150   0.012980
16 1   6.115970   3.362200   0.016940
17 1   7.341970   2.654720   0.014350
18 1   8.567570   3.362880   0.013620
19 1   8.567410   4.778370   0.015550
20 1   7.341390   5.485760   0.018260
21 1   7.340930   6.880130   0.019770
22 1   7.340660   8.209810   0.020780
23 1   9.774900   5.475750   0.014380
24 1  10.926480   6.140630   0.013370
25 1   9.775390   2.666190   0.010570
26 1  10.927270   2.002000   0.007810
27 1   0.097020   8.251350   0.012070
28 1   0.097260   6.835840   0.010650
29 1   1.323120   6.128110   0.014600
30 1   2.548730   6.836300   0.019120
31 1   2.548470   8.251820   0.020600
32 1   1.322600   8.959560   0.017530
33 1   1.322240  10.354010   0.018710
34 1   1.321790  11.683780   0.019340
35 1   3.755880   8.949270   0.023630
36 1   4.907240   9.614440   0.024420
37 1   3.756450   6.139360   0.020790
38 1   4.908070   5.474640   0.020620
39 1   6.114380  11.727280   0.024040
40 1   6.114700  10.311810   0.023570
41 1   7.340610   9.604180   0.021380
42 1   8.566390  10.312030   0.019250
43 1   0.094990  15.201630   0.015660
44 1   0.095850  13.786140   0.015320
45 1   1.321620  13.078250   0.019710
46 1   2.547430  13.786120   0.023480
47 1   2.547030  15.201620   0.024220
48 1   1.321010  15.909050   0.020760
49 1   1.320550  17.303341   0.021000
50 1   1.319480  18.632931   0.020110
51 1   3.754420  15.899220   0.026970
52 1   4.905820  16.564409   0.027800
53 1   3.755110  13.089100   0.025230
54 1   4.906720  12.424310   0.025270
55 1  12.136670  -5.642420   0.011480
56 1  12.137280  -7.057580   0.020340
57 1  15.793060   8.951580   0.011440
58 1  16.944620   9.616480   0.011900
59 1  15.793670   6.141550   0.009780
60 1  16.945440   5.477010   0.009190
61 1  13.362620  -7.765500   0.025180
62 1  14.587690  -7.057130   0.019010
63 1  14.587840  -5.641970   0.010010
64 1  13.362130  -4.934590   0.007180
65 1  13.361870  -3.540550   0.001950
66 1  13.361630  -2.211110   0.000610
67 1  15.795510  -4.945340   0.005430
68 1  16.947559  -4.281620   0.002950
69 1  15.794960  -7.753980   0.023250
70 1  16.945601  -8.419650   0.028770
71 1   6.117060  -2.172200   0.010310
72 1   6.117350  -3.587750   0.011470
73 1   7.343210  -4.295610   0.011590
74 1   8.568460  -3.586710   0.008590
75 1  12.134900   1.305040   0.005600
76 1  12.134920  -0.110390   0.003590
77 1  13.361370  -0.816980   0.001770
78 1  14.587560  -0.109910   0.001920
79 1  14.586990   1.305520   0.004060
80 1  13.360810   2.012650   0.005810
81 1  13.360530   3.406970   0.007810
82 1  13.360310   4.736590   0.009530
83 1  15.794330   2.002970   0.004640
84 1  16.946030   2.667490   0.005650
85 1  15.795160  -0.807300   0.000400
86 1  16.946730  -1.472410   0.000040
87 1   8.568640  -2.171160   0.007450
88 1   7.342570  -1.463800   0.009110
89 1   7.342130  -0.069400   0.009970
90 1   7.342110   1.260320   0.011960
91 1   9.776210  -1.473670   0.005240
92 1  10.927570  -0.808210   0.003940
93 1   9.776460  -4.282950   0.007730
94 1  10.928740  -4.946260   0.008580
95 1   0.098250   1.301110   0.002190
96 1   0.097860  -0.114370   0.000170
97 1   1.324150  -0.821330   0.004050
98 1   2.549930  -0.113480   0.008540
99 1   2.549810   1.302010   0.010850
100 1   1.323760   2.009430   0.008340
101 1   1.323390   3.403890   0.010940
102 1   1.323290   4.733660   0.012920
103 1   3.757190   1.999540   0.014650
104 1   4.908540   2.664770   0.016620
105 1   3.757580  -0.810620   0.010100
106 1   4.909230  -1.475370   0.010530
107 1   7.340120  12.435220   0.022570
108 1   8.565970  11.727510   0.019930
0.0 0.0 0.0
18.05700   10.42080    0.000
0.00000   20.85000    0.000
0.0 0.0 50.0
}
Driver = GeometryOptimization {
  Optimiser = Rational {
    DiagLimit = 1.0000000000000000E-002
  }
  LatticeOpt = Yes
  MovedAtoms = 1:-1
  FixAngles = No
  Isotropic = No
  MaxSteps = 10000
  OutputPrefix = "geo_opt_out"
  Convergence = {
    Energy = inf
    GradElem = 1e-4
    GradNorm = inf
    DispElem = inf
    DispNorm = inf
  }
  AppendGeometries = Yes
  FixLengths = {
 No No No
  }
}
Hamiltonian = DFTB {
  Scc = Yes
  SCCTolerance = 1e-5
  MaxSCCIterations = 10000
  ConvergentSccOnly = Yes
  EwaldTolerance = 1e-9
  ShellResolvedSCC = No
  Mixer = Anderson {
    MixingParameter = 5.0000000000000003E-002
    Generations = 4
    InitMixingParameter = 1.0000000000000000E-002
    DynMixingParameters = {}
    DiagonalRescaling = 1.0000000000000000E-002
  }
  MaxAngularMomentum = {
    C = "p"
  }
  SlaterKosterFiles = Type2FileNames {
    Prefix = "/home/common/3ob-3-1_H_mod/"
    Separator = "-"
    Suffix = ".skf"
    LowerCaseTypeName = No
  }
  KPointsAndWeights = SupercellFolding {
1 0 0
0 1 0
0 0 1
0.0 0.0 0.0
  }
  Dispersion = DftD3 {
    Damping = BeckeJohnson {
      a1 = 0.746
      a2 = 4.191
    }
    s6 = 1.0
    s8 = 3.209
    cutoff = 94.868329805051374
    cutoffcn = 40.000000000000000
    threebody = No
    hhrepulsion = No
  }
  ThirdOrderFull = Yes
  HCorrection = Damping {
    Exponent = 4.00
  }
  HubbardDerivs = C {
-0.1492
  }
  PolynomialRepulsive = {}
  OldSKInterpolation = No
  RangeSeparated = None {}
  ReadInitialCharges = No
  InitialCharges = {}
  EwaldParameter = 0.0000000000000000
  SpinPolarisation = {}
  ElectricField = {}
  Solver = RelativelyRobust {}
  Charge = 0.0000000000000000
  OnSiteCorrection = {}
  Solvation = {}
  Electrostatics = GammaFunctional {}
  ThirdOrder = No
  Differentiation = FiniteDiff {
    Delta = 1.2207031250000000E-004
  }
  ForceEvaluation = "Traditional"
  Filling = Fermi {
    Temperature = 0.0000000000000000
    IndependentKFilling = No
  }
}
Options = {
  WriteDetailedXML = No
  WriteAutotestTag = No
  WriteResultsTag = No
  WriteDetailedOut = Yes
  RandomSeed = 0
  WriteHS = No
  WriteRealHS = No
  MinimiseMemoryUsage = No
  ShowFoldedCoords = No
  TimingVerbosity = 1
  WriteChargesAsText = No
}
Analysis = {
  CalculateForces = Yes
  ProjectStates = {}
  WriteEigenvectors = No
  WriteBandOut = Yes
  MullikenAnalysis = Yes
  WriteNetCharges = No
  AtomResolvedEnergies = No
}
ParserOptions = {
  ParserVersion = 12
  WriteHSDInput = Yes
  IgnoreUnprocessedNodes = No
  StopAfterParsing = No
}
Reks = None {}
ExcitedState = {}
